Maximize

5 y_0 + 10 y_1


Subject To

a0: x_0_0 + x_0_1 <= 6
a1: x_1_0 + x_1_1 <= 3
a2: x_2_0 + x_2_1 <= 8
b0: y_0 = 1 -> x_0_0 + x_1_0 + x_2_0 > 0
b1: y_1 = 1 -> x_0_1 + x_1_1 + x_2_1 > 0
c0: x_2_1 = 8




 


End
